; Options: -in -smt2
(set-option :produce-unsat-assumptions true)

(declare-fun start!2625 () Bool)

(assert start!2625)

(declare-fun b!14072 () Bool)

(declare-fun res!10808 () Bool)

(declare-fun e!8156 () Bool)

(assert (=> b!14072 (=> (not res!10808) (not e!8156))))

(declare-datatypes ((array!1143 0))(
  ( (array!1144 (arr!505 (Array (_ BitVec 32) (_ FloatingPoint 11 53))) (size!505 (_ BitVec 32))) )
))
(declare-fun q!31 () array!1143)

(declare-fun qInv!0 (array!1143) Bool)

(assert (=> b!14072 (= res!10808 (qInv!0 q!31))))

(declare-fun res!10811 () Bool)

(assert (=> start!2625 (=> (not res!10811) (not e!8156))))

(declare-fun jz!20 () (_ BitVec 32))

(assert (=> start!2625 (= res!10811 (and (bvsle #b00000000000000000000000000000010 jz!20) (bvslt jz!20 #b00000000000000000000000000010011)))))

(assert (=> start!2625 e!8156))

(assert (=> start!2625 true))

(declare-fun array_inv!453 (array!1143) Bool)

(assert (=> start!2625 (array_inv!453 q!31)))

(declare-datatypes ((array!1145 0))(
  ( (array!1146 (arr!506 (Array (_ BitVec 32) (_ BitVec 32))) (size!506 (_ BitVec 32))) )
))
(declare-fun iq!76 () array!1145)

(declare-fun array_inv!454 (array!1145) Bool)

(assert (=> start!2625 (array_inv!454 iq!76)))

(declare-fun b!14073 () Bool)

(declare-fun res!10804 () Bool)

(declare-fun e!8155 () Bool)

(assert (=> b!14073 (=> (not res!10804) (not e!8155))))

(declare-fun iqInv!0 (array!1145) Bool)

(assert (=> b!14073 (= res!10804 (iqInv!0 iq!76))))

(declare-fun b!14074 () Bool)

(declare-fun e!8157 () Bool)

(declare-fun e!8158 () Bool)

(assert (=> b!14074 (= e!8157 e!8158)))

(declare-fun res!10807 () Bool)

(assert (=> b!14074 (=> (not res!10807) (not e!8158))))

(declare-datatypes ((Unit!1556 0))(
  ( (Unit!1557) )
))
(declare-datatypes ((tuple4!388 0))(
  ( (tuple4!389 (_1!388 Unit!1556) (_2!388 (_ BitVec 32)) (_3!325 array!1145) (_4!194 (_ BitVec 32))) )
))
(declare-fun lt!7651 () tuple4!388)

(assert (=> b!14074 (= res!10807 (and (bvsle #b00000000000000000000000000000000 (_2!388 lt!7651)) (bvsle (_2!388 lt!7651) (bvsub jz!20 #b00000000000000000000000000000001))))))

(declare-fun i!142 () (_ BitVec 32))

(declare-fun carry!33 () (_ BitVec 32))

(declare-fun lt!7652 () (_ BitVec 32))

(declare-fun lt!7655 () (_ BitVec 32))

(declare-fun computeModuloWhile!3 ((_ BitVec 32) array!1143 (_ BitVec 32) array!1145 (_ BitVec 32)) tuple4!388)

(assert (=> b!14074 (= lt!7651 (computeModuloWhile!3 jz!20 q!31 lt!7655 (array!1146 (store (arr!506 iq!76) i!142 (ite (= carry!33 #b00000000000000000000000000000000) (ite (not (= lt!7652 #b00000000000000000000000000000000)) (bvsub #b00000001000000000000000000000000 lt!7652) #b00000000000000000000000000000000) (bvsub #b00000000111111111111111111111111 lt!7652))) (size!506 iq!76)) (ite (and (= carry!33 #b00000000000000000000000000000000) (not (= lt!7652 #b00000000000000000000000000000000))) #b00000000000000000000000000000001 carry!33)))))

(declare-fun b!14075 () Bool)

(declare-fun lt!7653 () array!1145)

(declare-fun lt!7649 () (_ FloatingPoint 11 53))

(declare-datatypes ((tuple4!390 0))(
  ( (tuple4!391 (_1!389 Unit!1556) (_2!389 array!1145) (_3!326 (_ BitVec 32)) (_4!195 (_ FloatingPoint 11 53))) )
))
(declare-fun e!8160 () tuple4!390)

(declare-fun computeModuloWhile!0 ((_ BitVec 32) array!1143 array!1145 (_ BitVec 32) (_ FloatingPoint 11 53)) tuple4!390)

(assert (=> b!14075 (= e!8160 (computeModuloWhile!0 jz!20 q!31 lt!7653 jz!20 lt!7649))))

(declare-fun b!14076 () Bool)

(declare-fun res!10809 () Bool)

(assert (=> b!14076 (=> (not res!10809) (not e!8155))))

(assert (=> b!14076 (= res!10809 (and (bvsge (select (arr!506 iq!76) (bvsub jz!20 #b00000000000000000000000000000001)) #b00000000100000000000000000000000) (or (= carry!33 #b00000000000000000000000000000000) (= carry!33 #b00000000000000000000000000000001)) (bvslt i!142 (bvsub jz!20 #b00000000000000000000000000000001))))))

(declare-fun b!14077 () Bool)

(declare-fun res!10806 () Bool)

(assert (=> b!14077 (=> (not res!10806) (not e!8158))))

(assert (=> b!14077 (= res!10806 (iqInv!0 (_3!325 lt!7651)))))

(declare-fun b!14078 () Bool)

(declare-fun e!8161 () Bool)

(assert (=> b!14078 (= e!8161 e!8157)))

(declare-fun res!10810 () Bool)

(assert (=> b!14078 (=> (not res!10810) (not e!8157))))

(assert (=> b!14078 (= res!10810 (bvslt lt!7655 (bvsub jz!20 #b00000000000000000000000000000001)))))

(assert (=> b!14078 (= lt!7655 (bvadd i!142 #b00000000000000000000000000000001))))

(declare-fun b!14079 () Bool)

(declare-fun Unit!1558 () Unit!1556)

(assert (=> b!14079 (= e!8160 (tuple4!391 Unit!1558 lt!7653 jz!20 lt!7649))))

(declare-fun b!14080 () Bool)

(assert (=> b!14080 (= e!8156 e!8155)))

(declare-fun res!10812 () Bool)

(assert (=> b!14080 (=> (not res!10812) (not e!8155))))

(declare-fun lt!7650 () (_ FloatingPoint 11 53))

(declare-fun lt!7654 () tuple4!390)

(assert (=> b!14080 (= res!10812 (and (fp.leq (fp #b0 #b00000000000 #b0000000000000000000000000000000000000000000000000000) lt!7650) (fp.lt lt!7650 (fp #b0 #b10000000010 #b0000000000000000000000000000000000000000000000000000)) (bvsge (select (arr!506 (_2!389 lt!7654)) (bvsub jz!20 #b00000000000000000000000000000001)) #b00000000100000000000000000000000) (bvsle #b00000000000000000000000000000000 i!142) (bvsle i!142 (bvsub jz!20 #b00000000000000000000000000000001))))))

(assert (=> b!14080 (= lt!7650 (fp.sub roundNearestTiesToEven (_4!195 lt!7654) (fp.mul roundNearestTiesToEven (fp #b0 #b10000000010 #b0000000000000000000000000000000000000000000000000000) ((_ to_fp 11 53) roundNearestTiesToEven (ite (fp.isNaN (fp.mul roundNearestTiesToEven (_4!195 lt!7654) (fp #b0 #b01111111100 #b0000000000000000000000000000000000000000000000000000))) #b0000000000000000000000000000000000000000000000000000000000000000 (ite (fp.gt (fp.mul roundNearestTiesToEven (_4!195 lt!7654) (fp #b0 #b01111111100 #b0000000000000000000000000000000000000000000000000000)) ((_ to_fp 11 53) roundTowardZero #b0111111111111111111111111111111111111111111111111111111111111111)) #b0111111111111111111111111111111111111111111111111111111111111111 (ite (fp.lt (fp.mul roundNearestTiesToEven (_4!195 lt!7654) (fp #b0 #b01111111100 #b0000000000000000000000000000000000000000000000000000)) ((_ to_fp 11 53) roundTowardZero #b1000000000000000000000000000000000000000000000000000000000000000)) #b1000000000000000000000000000000000000000000000000000000000000000 ((_ fp.to_sbv 64) roundTowardZero (fp.mul roundNearestTiesToEven (_4!195 lt!7654) (fp #b0 #b01111111100 #b0000000000000000000000000000000000000000000000000000))))))))))))

(assert (=> b!14080 (= lt!7654 e!8160)))

(declare-fun c!1845 () Bool)

(assert (=> b!14080 (= c!1845 (bvsgt jz!20 #b00000000000000000000000000000000))))

(assert (=> b!14080 (= lt!7649 (select (arr!505 q!31) jz!20))))

(assert (=> b!14080 (= lt!7653 (array!1146 ((as const (Array (_ BitVec 32) (_ BitVec 32))) #b00000000000000000000000000000000) #b00000000000000000000000000010100))))

(declare-fun b!14081 () Bool)

(assert (=> b!14081 (= e!8155 e!8161)))

(declare-fun res!10805 () Bool)

(assert (=> b!14081 (=> (not res!10805) (not e!8161))))

(declare-fun QInt!0 ((_ BitVec 32)) Bool)

(assert (=> b!14081 (= res!10805 (QInt!0 lt!7652))))

(assert (=> b!14081 (= lt!7652 (select (arr!506 iq!76) i!142))))

(declare-fun b!14082 () Bool)

(assert (=> b!14082 (= e!8158 (and (not (= (bvand jz!20 #b10000000000000000000000000000000) #b00000000000000000000000000000000)) (not (= (bvand jz!20 #b10000000000000000000000000000000) (bvand (bvsub jz!20 #b00000000000000000000000000000001) #b10000000000000000000000000000000)))))))

(assert (= (and start!2625 res!10811) b!14072))

(assert (= (and b!14072 res!10808) b!14080))

(assert (= (and b!14080 c!1845) b!14075))

(assert (= (and b!14080 (not c!1845)) b!14079))

(assert (= (and b!14080 res!10812) b!14073))

(assert (= (and b!14073 res!10804) b!14076))

(assert (= (and b!14076 res!10809) b!14081))

(assert (= (and b!14081 res!10805) b!14078))

(assert (= (and b!14078 res!10810) b!14074))

(assert (= (and b!14074 res!10807) b!14077))

(assert (= (and b!14077 res!10806) b!14082))

(declare-fun m!19705 () Bool)

(assert (=> b!14081 m!19705))

(declare-fun m!19707 () Bool)

(assert (=> b!14081 m!19707))

(declare-fun m!19709 () Bool)

(assert (=> b!14077 m!19709))

(declare-fun m!19711 () Bool)

(assert (=> b!14073 m!19711))

(declare-fun m!19713 () Bool)

(assert (=> b!14080 m!19713))

(declare-fun m!19715 () Bool)

(assert (=> b!14080 m!19715))

(declare-fun m!19717 () Bool)

(assert (=> b!14074 m!19717))

(declare-fun m!19719 () Bool)

(assert (=> b!14074 m!19719))

(declare-fun m!19721 () Bool)

(assert (=> b!14075 m!19721))

(declare-fun m!19723 () Bool)

(assert (=> b!14072 m!19723))

(declare-fun m!19725 () Bool)

(assert (=> b!14076 m!19725))

(declare-fun m!19727 () Bool)

(assert (=> start!2625 m!19727))

(declare-fun m!19729 () Bool)

(assert (=> start!2625 m!19729))

(check-sat (not b!14077) (not b!14075) (not b!14081) (not b!14073) (not b!14072) (not start!2625) (not b!14074))
(check-sat)
